p cnf 45 33
-1 41 0 
-2 14 24 39 -3 -4 38 -5 22 41 0 
-6 41 0 
-7 41 0 
-8 41 0 
-9 -6 -5 22 41 0 
-10 25 42 0 
-11 43 0 
-7 43 0 
-12 42 0 
-3 -13 -4 38 -14 2 24 39 41 0 
-15 27 -16 42 0 
-17 40 44 0 
-17 40 45 0 
-18 29 -19 -20 -4 38 -1 41 0 
-21 -22 5 -23 42 0 
-24 2 14 39 41 0 
-25 10 42 0 
-26 41 0 
-18 29 -1 41 0 
-27 15 -28 -29 18 -16 -30 42 0 
-31 42 0 
-20 -14 2 24 39 -10 25 42 0 
-31 41 0 
-4 38 41 0 
-9 -14 2 24 39 -10 25 41 0 
-32 -33 -10 25 42 0 
-34 35 45 0 
-35 34 45 0 
-36 41 0 
-37 41 0 
-38 4 -39 2 14 24 44 0 
-40 17 44 0 
